p cnf 4 85

 7806992122677703010 8.358492929658581 0



 7806992122677703010 3.699867071939822 0
 7806992122677703010 0
 7806992122677703010 6 '/8 0
 7806992122677703010 0
-7806992122677703010 7806992122677703010  %#+!'7.3%4% (,4 0


-7806992122677703010 7806992122677703010 #,(7+#. >"<$ 0
 7806992122677703010 0
-7806992122677703010 7806992122677703010 0

 7806992122677703010 0
 7806992122677703010 60 !$/5*-$<* 6.193144652921351 0

-7806992122677703010 7806992122677703010 330$?."82+4;4-+ 0
 7806992122677703010 8.145075701078051 0
-7806992122677703010 7806992122677703010 :!$? 6-%== 2.668754002863224 0







-7806992122677703010 7806992122677703010 0
-7806992122677703010 7806992122677703010 0

 7806992122677703010 3.080191185126072 0


-7806992122677703010 7806992122677703010 9.141156122431862 0
-7806992122677703010 7806992122677703010 0
-7806992122677703010 7806992122677703010 4?-1' 2.5752109728190065 0
 7806992122677703010 5.1173799835274005 0
 7806992122677703010 0
 7806992122677703010 00=->! #*2 4.201831581853467 0
 7806992122677703010 !1$<-:34,17'!&7;+!! 1.614370011293852 0
-7806992122677703010 7806992122677703010 0
-7806992122677703010 7806992122677703010 2.68968280724017 0
-7806992122677703010 7806992122677703010 %#<9+0(#$+< 0
-7806992122677703010 7806992122677703010 0


-7806992122677703010 7806992122677703010 7&5+# 6.061607642467852 0
 7806992122677703010 ?390;/527?;5* :- 7.748625550277469 0
 7806992122677703010 0.3393106999688278 0
 7806992122677703010 0


 7806992122677703010 2);& 7"6;3(,,(',6+ 0
-7806992122677703010 7806992122677703010 6.375111368577873 0
-7806992122677703010 7806992122677703010 0
 7806992122677703010 , 0
-7806992122677703010 7806992122677703010 0
 7806992122677703010 01/&4!" 0
 7806992122677703010 "32-*-(9 6.6479717367187945 0

 7806992122677703010 0.1368151202723744 0

